200 1104
820 180 742 701 307 558 114 938 459 317 735 886 244 1029 757 223 784 89 103 307 1077 639 375 523 136 414 730 683 429 810 584 852 823 31 31 507 908 163 56 1057 843 101 1071 53 1008 464 190 898 457 453 399 1018 901 689 1099 647 491 815 118 272 392 626 648 895 306 93 417 664 876 928 174 328 912 648 907 45 649 128 783 635 246 470 506 419 220 645 236 44 841 101 1098 1043 568 496 986 806 427 824 28 1077 481 406 90 824 946 1021 148 635 770 526 790 1044 667 484 964 563 388 1073 690 421 675 1004 225 391 302 308 313 560 762 360 756 725 1070 326 998 164 484 319 803 792 87 175 357 431 760 216 170 907 754 615 390 1047 257 1101 339 204 771 410 604 445 667 262 151 104 1089 776 565 297 241 245 789 583 965 607 850 416 443 672 726 971 63 138 964 513 145 766 928 199 411 947 269 991 828 56 165 830 881 608 582 749 